1133.0
1232.0
1133.0
1094.0
1120.0
1075.0
1160.0
1223.0
1150.0
1181.0
1166.0
1058.0
1198.0
1130.0
1145.0
1225.0
1118.0
1229.0
1161.0
1183.0
1114.0
1095.0
1207.0
1328.0
1190.0
1207.0
1123.0
1217.0
1202.0
1117.0
